Maximize
  C0 + C1 + C2 + C3 + C4 + C5 + C6 + C7 + C8 + C9 + C10 + C11 + C12 + C13
   + C14 + C15 + C16 + C17 + C18 + C19 + C20 + C21 + C22 + C23 + C24 + C25
   + C26 + C27 + C28 + C29 + C30 + C31 + C32 + C33 + C34 + C35 + C36 + C37
   + C38 + C39 + C40 + C41 + C42 + C43 + C44 + C45 + C46 + C47 + C48 + C49
Subject To
 R0: 100 C0 + C50 - 1.786234501411306 C51 + 0.058873276429968 C52
   <= 99.9999
 R1: 100 C0 + C50 - 1.786234501411306 C51 + 0.058873276429968 C52
   >= -0.0001
 R2: 100 C1 - C50 + 2.30414090475404 C51 - 3.19539327268174 C52 <= 99.9999
 R3: 100 C1 - C50 + 2.30414090475404 C51 - 3.19539327268174 C52 >= -0.0001
 R4: 100 C2 + C50 - 2.28171133972963 C51 + 2.437480118275493 C52
   <= 99.9999
 R5: 100 C2 + C50 - 2.28171133972963 C51 + 2.437480118275493 C52
   >= -0.0001
 R6: 100 C3 - C50 - 7.706616985963908 C51 + 0.5632919091345581 C52
   <= 99.9999
 R7: 100 C3 - C50 - 7.706616985963908 C51 + 0.5632919091345581 C52
   >= -0.0001
 R8: 100 C4 + C50 + 2.076163999545377 C51 - 6.912510719596267 C52
   <= 99.9999
 R9: 100 C4 + C50 + 2.076163999545377 C51 - 6.912510719596267 C52
   >= -0.0001
 R10: 100 C5 - C50 - 6.652700026309244 C51 + 2.143304426367391 C52
   <= 99.9999
 R11: 100 C5 - C50 - 6.652700026309244 C51 + 2.143304426367391 C52
   >= -0.0001
 R12: 100 C6 + C50 - 8.866499199444192 C51 - 5.457860657158692 C52
   <= 99.9999
 R13: 100 C6 + C50 - 8.866499199444192 C51 - 5.457860657158692 C52
   >= -0.0001
 R14: 100 C7 - C50 - 3.621834383228106 C51 - 1.68230528182235 C52
   <= 99.9999
 R15: 100 C7 - C50 - 3.621834383228106 C51 - 1.68230528182235 C52
   >= -0.0001
 R16: 100 C8 + C50 - 4.705976126982579 C51 + 2.05894384755391 C52
   <= 99.9999
 R17: 100 C8 + C50 - 4.705976126982579 C51 + 2.05894384755391 C52
   >= -0.0001
 R18: 100 C9 - C50 - 1.802633438809135 C51 + 2.786806698770199 C52
   <= 99.9999
 R19: 100 C9 - C50 - 1.802633438809135 C51 + 2.786806698770199 C52
   >= -0.0001
 R20: 100 C10 + C50 - 3.030613691314365 C51 + 2.469319236443992 C52
   <= 99.9999
 R21: 100 C10 + C50 - 3.030613691314365 C51 + 2.469319236443992 C52
   >= -0.0001
 R22: 100 C11 - C50 - 3.239549189619659 C51 - 1.042941196917086 C52
   <= 99.9999
 R23: 100 C11 - C50 - 3.239549189619659 C51 - 1.042941196917086 C52
   >= -0.0001
 R24: 100 C12 + C50 - 5.934247266902793 C51 - 6.598024263965068 C52
   <= 99.9999
 R25: 100 C12 + C50 - 5.934247266902793 C51 - 6.598024263965068 C52
   >= -0.0001
 R26: 100 C13 - C50 - 3.03570534422414 C51 - 7.150480519329962 C52
   <= 99.9999
 R27: 100 C13 - C50 - 3.03570534422414 C51 - 7.150480519329962 C52
   >= -0.0001
 R28: 100 C14 + C50 - 8.263846636230813 C51 - 10.20271002818455 C52
   <= 99.9999
 R29: 100 C14 + C50 - 8.263846636230813 C51 - 10.20271002818455 C52
   >= -0.0001
 R30: 100 C15 - C50 - 0.5835779206570233 C51 + 4.714260885381052 C52
   <= 99.9999
 R31: 100 C15 - C50 - 0.5835779206570233 C51 + 4.714260885381052 C52
   >= -0.0001
 R32: 100 C16 + C50 - 5.128532790806224 C51 - 1.075869367591383 C52
   <= 99.9999
 R33: 100 C16 + C50 - 5.128532790806224 C51 - 1.075869367591383 C52
   >= -0.0001
 R34: 100 C17 - C50 - 10.71154554215909 C51 + 2.820034625200887 C52
   <= 99.9999
 R35: 100 C17 - C50 - 10.71154554215909 C51 + 2.820034625200887 C52
   >= -0.0001
 R36: 100 C18 + C50 - 4.768548852290076 C51 - 6.259975780532999 C52
   <= 99.9999
 R37: 100 C18 + C50 - 4.768548852290076 C51 - 6.259975780532999 C52
   >= -0.0001
 R38: 100 C19 - C50 - 4.16794349568653 C51 - 6.819335266796935 C52
   <= 99.9999
 R39: 100 C19 - C50 - 4.16794349568653 C51 - 6.819335266796935 C52
   >= -0.0001
 R40: 100 C20 + C50 - 1.153310027921917 C51 - 4.126109416150172 C52
   <= 99.9999
 R41: 100 C20 + C50 - 1.153310027921917 C51 - 4.126109416150172 C52
   >= -0.0001
 R42: 100 C21 - C50 - 5.967576520863044 C51 - 4.374098826296669 C52
   <= 99.9999
 R43: 100 C21 - C50 - 5.967576520863044 C51 - 4.374098826296669 C52
   >= -0.0001
 R44: 100 C22 + C50 - 3.822080223301832 C51 + 2.154979116222635 C52
   <= 99.9999
 R45: 100 C22 + C50 - 3.822080223301832 C51 + 2.154979116222635 C52
   >= -0.0001
 R46: 100 C23 - C50 - 3.958245886395065 C51 - 3.306733007295712 C52
   <= 99.9999
 R47: 100 C23 - C50 - 3.958245886395065 C51 - 3.306733007295712 C52
   >= -0.0001
 R48: 100 C24 + C50 - 6.803505579292912 C51 - 4.003174100289892 C52
   <= 99.9999
 R49: 100 C24 + C50 - 6.803505579292912 C51 - 4.003174100289892 C52
   >= -0.0001
 R50: 100 C25 - C50 - 2.562100624721214 C51 - 0.4381456686553347 C52
   <= 99.9999
 R51: 100 C25 - C50 - 2.562100624721214 C51 - 0.4381456686553347 C52
   >= -0.0001
 R52: 100 C26 + C50 - 5.427324148217869 C51 - 0.2582750504016551 C52
   <= 99.9999
 R53: 100 C26 + C50 - 5.427324148217869 C51 - 0.2582750504016551 C52
   >= -0.0001
 R54: 100 C27 - C50 - 8.67179628786225 C51 - 4.739171180478656 C52
   <= 99.9999
 R55: 100 C27 - C50 - 8.67179628786225 C51 - 4.739171180478656 C52
   >= -0.0001
 R56: 100 C28 + C50 - 3.724083941724323 C51 + 2.03401869873024 C52
   <= 99.9999
 R57: 100 C28 + C50 - 3.724083941724323 C51 + 2.03401869873024 C52
   >= -0.0001
 R58: 100 C29 - C50 + 0.5733791071249836 C51 - 4.013542628480665 C52
   <= 99.9999
 R59: 100 C29 - C50 + 0.5733791071249836 C51 - 4.013542628480665 C52
   >= -0.0001
 R60: 100 C30 + C50 - 3.91373410419837 C51 - 3.091335891354503 C52
   <= 99.9999
 R61: 100 C30 + C50 - 3.91373410419837 C51 - 3.091335891354503 C52
   >= -0.0001
 R62: 100 C31 - C50 + 3.597522624601939 C51 - 1.243256967467577 C52
   <= 99.9999
 R63: 100 C31 - C50 + 3.597522624601939 C51 - 1.243256967467577 C52
   >= -0.0001
 R64: 100 C32 + C50 - 0.6043795535554621 C51 - 8.618323652937683 C52
   <= 99.9999
 R65: 100 C32 + C50 - 0.6043795535554621 C51 - 8.618323652937683 C52
   >= -0.0001
 R66: 100 C33 - C50 - 4.220327860947858 C51 - 1.707197853805839 C52
   <= 99.9999
 R67: 100 C33 - C50 - 4.220327860947858 C51 - 1.707197853805839 C52
   >= -0.0001
 R68: 100 C34 + C50 - 6.277923183227364 C51 - 0.5113301488802855 C52
   <= 99.9999
 R69: 100 C34 + C50 - 6.277923183227364 C51 - 0.5113301488802855 C52
   >= -0.0001
 R70: 100 C35 - C50 + 0.1263245852574824 C51 + 0.5015865828102706 C52
   <= 99.9999
 R71: 100 C35 - C50 + 0.1263245852574824 C51 + 0.5015865828102706 C52
   >= -0.0001
 R72: 100 C36 + C50 - 5.433847677095978 C51 + 0.4973322527661135 C52
   <= 99.9999
 R73: 100 C36 + C50 - 5.433847677095978 C51 + 0.4973322527661135 C52
   >= -0.0001
 R74: 100 C37 - C50 - 6.056771066653218 C51 - 6.586836799053002 C52
   <= 99.9999
 R75: 100 C37 - C50 - 6.056771066653218 C51 - 6.586836799053002 C52
   >= -0.0001
 R76: 100 C38 + C50 - 3.309329188646805 C51 - 2.926029355257287 C52
   <= 99.9999
 R77: 100 C38 + C50 - 3.309329188646805 C51 - 2.926029355257287 C52
   >= -0.0001
 R78: 100 C39 - C50 - 6.159960156545644 C51 - 0.131997186915646 C52
   <= 99.9999
 R79: 100 C39 - C50 - 6.159960156545644 C51 - 0.131997186915646 C52
   >= -0.0001
 R80: 100 C40 + C50 - 5.494229528106901 C51 - 1.107796480720577 C52
   <= 99.9999
 R81: 100 C40 + C50 - 5.494229528106901 C51 - 1.107796480720577 C52
   >= -0.0001
 R82: 100 C41 - C50 - 4.259041005106168 C51 - 7.452998239467058 C52
   <= 99.9999
 R83: 100 C41 - C50 - 4.259041005106168 C51 - 7.452998239467058 C52
   >= -0.0001
 R84: 100 C42 + C50 - 4.417576322813908 C51 + 0.1696401929783802 C52
   <= 99.9999
 R85: 100 C42 + C50 - 4.417576322813908 C51 + 0.1696401929783802 C52
   >= -0.0001
 R86: 100 C43 - C50 - 5.551477271339641 C51 - 7.097161763590368 C52
   <= 99.9999
 R87: 100 C43 - C50 - 5.551477271339641 C51 - 7.097161763590368 C52
   >= -0.0001
 R88: 100 C44 + C50 - 1.158884720596483 C51 - 3.292245851797255 C52
   <= 99.9999
 R89: 100 C44 + C50 - 1.158884720596483 C51 - 3.292245851797255 C52
   >= -0.0001
 R90: 100 C45 - C50 - 8.655508096296593 C51 - 2.726306760854382 C52
   <= 99.9999
 R91: 100 C45 - C50 - 8.655508096296593 C51 - 2.726306760854382 C52
   >= -0.0001
 R92: 100 C46 + C50 - 4.921003459713154 C51 + 0.8672063650596922 C52
   <= 99.9999
 R93: 100 C46 + C50 - 4.921003459713154 C51 + 0.8672063650596922 C52
   >= -0.0001
 R94: 100 C47 - C50 + 4.488763680322516 C51 - 0.5918753957029901 C52
   <= 99.9999
 R95: 100 C47 - C50 + 4.488763680322516 C51 - 0.5918753957029901 C52
   >= -0.0001
 R96: 100 C48 + C50 - 6.617857855916387 C51 - 4.013966257059471 C52
   <= 99.9999
 R97: 100 C48 + C50 - 6.617857855916387 C51 - 4.013966257059471 C52
   >= -0.0001
 R98: 100 C49 - C50 - 3.747010930257036 C51 + 0.5043620652304848 C52
   <= 99.9999
 R99: 100 C49 - C50 - 3.747010930257036 C51 + 0.5043620652304848 C52
   >= -0.0001
 R100: C50 + C51 + C52 >= 1
Bounds
 -1e+06 <= C50 <= 1e+06
 -1e+06 <= C51 <= 1e+06
 -1e+06 <= C52 <= 1e+06
Binaries
 C0 C1 C2 C3 C4 C5 C6 C7 C8 C9 C10 C11 C12 C13 C14 C15 C16 C17 C18 C19 C20
 C21 C22 C23 C24 C25 C26 C27 C28 C29 C30 C31 C32 C33 C34 C35 C36 C37 C38
 C39 C40 C41 C42 C43 C44 C45 C46 C47 C48 C49
End
